language Essence 1.3

letting blksize_delta be function(1 --> 3, 2 --> 5, 3 --> 4, 4 --> 4)
letting maxcars be function(1 --> 10, 2 --> 10, 3 --> 10, 4 --> 10)
letting n_cars be 297
letting n_classes be 189
letting n_options be 4
letting quantity be
        function(1 --> 77, 2 --> 26, 3 --> 7, 4 --> 1, 5 --> 2, 6 --> 1, 7 --> 1, 8 --> 1, 9 --> 1, 10 --> 1, 11 --> 1,
                 12 --> 1, 13 --> 1, 14 --> 1, 15 --> 1, 16 --> 1, 17 --> 1, 18 --> 1, 19 --> 1, 20 --> 1, 21 --> 1,
                 22 --> 1, 23 --> 1, 24 --> 1, 25 --> 1, 26 --> 1, 27 --> 1, 28 --> 1, 29 --> 1, 30 --> 1, 31 --> 1,
                 32 --> 1, 33 --> 1, 34 --> 1, 35 --> 1, 36 --> 1, 37 --> 1, 38 --> 1, 39 --> 1, 40 --> 1, 41 --> 1,
                 42 --> 1, 43 --> 1, 44 --> 1, 45 --> 1, 46 --> 1, 47 --> 1, 48 --> 1, 49 --> 1, 50 --> 1, 51 --> 1,
                 52 --> 1, 53 --> 1, 54 --> 1, 55 --> 1, 56 --> 1, 57 --> 1, 58 --> 1, 59 --> 1, 60 --> 1, 61 --> 1,
                 62 --> 1, 63 --> 1, 64 --> 1, 65 --> 1, 66 --> 1, 67 --> 1, 68 --> 1, 69 --> 1, 70 --> 1, 71 --> 1,
                 72 --> 1, 73 --> 1, 74 --> 1, 75 --> 1, 76 --> 1, 77 --> 1, 78 --> 1, 79 --> 1, 80 --> 1, 81 --> 1,
                 82 --> 1, 83 --> 1, 84 --> 1, 85 --> 1, 86 --> 1, 87 --> 1, 88 --> 1, 89 --> 1, 90 --> 1, 91 --> 1,
                 92 --> 1, 93 --> 1, 94 --> 1, 95 --> 1, 96 --> 1, 97 --> 1, 98 --> 1, 99 --> 1, 100 --> 1, 101 --> 1,
                 102 --> 1, 103 --> 1, 104 --> 1, 105 --> 1, 106 --> 1, 107 --> 1, 108 --> 1, 109 --> 1, 110 --> 1,
                 111 --> 1, 112 --> 1, 113 --> 1, 114 --> 1, 115 --> 1, 116 --> 1, 117 --> 1, 118 --> 1, 119 --> 1,
                 120 --> 1, 121 --> 1, 122 --> 1, 123 --> 1, 124 --> 1, 125 --> 1, 126 --> 1, 127 --> 1, 128 --> 1,
                 129 --> 1, 130 --> 1, 131 --> 1, 132 --> 1, 133 --> 1, 134 --> 1, 135 --> 1, 136 --> 1, 137 --> 1,
                 138 --> 1, 139 --> 1, 140 --> 1, 141 --> 1, 142 --> 1, 143 --> 1, 144 --> 1, 145 --> 1, 146 --> 1,
                 147 --> 1, 148 --> 1, 149 --> 1, 150 --> 1, 151 --> 1, 152 --> 1, 153 --> 1, 154 --> 1, 155 --> 1,
                 156 --> 1, 157 --> 1, 158 --> 1, 159 --> 1, 160 --> 1, 161 --> 1, 162 --> 1, 163 --> 1, 164 --> 1,
                 165 --> 1, 166 --> 1, 167 --> 1, 168 --> 1, 169 --> 1, 170 --> 1, 171 --> 1, 172 --> 1, 173 --> 1,
                 174 --> 1, 175 --> 1, 176 --> 1, 177 --> 1, 178 --> 1, 179 --> 1, 180 --> 1, 181 --> 1, 182 --> 1,
                 183 --> 1, 184 --> 1, 185 --> 1, 186 --> 1, 187 --> 1, 188 --> 1, 189 --> 1)
letting usage be
        relation((1, 1), (1, 3), (2, 2), (2, 3), (2, 4), (3, 1), (3, 2), (3, 4), (4, 1), (5, 2), (5, 3), (5, 4), (6, 3),
                 (7, 2), (7, 4), (8, 1), (9, 1), (10, 2), (10, 3), (11, 1), (11, 3), (12, 1), (13, 4), (14, 1), (14, 2),
                 (14, 4), (15, 2), (15, 3), (16, 1), (16, 2), (17, 2), (18, 1), (19, 1), (19, 4), (20, 3), (21, 2),
                 (21, 3), (22, 2), (22, 4), (23, 2), (23, 3), (23, 4), (24, 4), (25, 1), (25, 2), (25, 3), (26, 3),
                 (27, 4), (28, 4), (29, 2), (30, 4), (31, 2), (31, 3), (31, 4), (32, 1), (33, 4), (34, 2), (35, 2),
                 (36, 1), (36, 2), (36, 3), (37, 1), (37, 3), (38, 2), (38, 3), (39, 2), (39, 3), (40, 1), (40, 2),
                 (40, 4), (41, 1), (41, 3), (42, 4), (43, 4), (44, 1), (44, 4), (45, 1), (45, 4), (46, 4), (47, 1),
                 (47, 2), (47, 4), (48, 4), (49, 1), (49, 2), (50, 1), (51, 4), (52, 1), (52, 2), (52, 3), (52, 4),
                 (53, 3), (54, 1), (54, 4), (55, 1), (55, 2), (55, 4), (56, 2), (56, 3), (56, 4), (57, 1), (58, 2),
                 (58, 4), (59, 1), (59, 3), (60, 4), (61, 3), (61, 4), (62, 1), (62, 4), (63, 2), (63, 3), (64, 4),
                 (65, 1), (65, 2), (65, 3), (65, 4), (66, 3), (66, 4), (67, 3), (68, 1), (69, 2), (69, 4), (70, 1),
                 (71, 1), (72, 3), (73, 1), (73, 3), (74, 4), (75, 1), (75, 3), (75, 4), (76, 1), (76, 2), (76, 4),
                 (77, 2), (77, 4), (78, 1), (78, 4), (79, 1), (80, 1), (81, 3), (82, 1), (82, 2), (82, 4), (83, 3),
                 (84, 1), (84, 2), (84, 3), (85, 1), (85, 2), (86, 1), (86, 2), (87, 1), (87, 3), (88, 2), (88, 4),
                 (89, 1), (89, 2), (89, 3), (90, 4), (91, 2), (91, 3), (91, 4), (92, 4), (93, 4), (94, 4), (95, 4),
                 (96, 2), (96, 3), (96, 4), (97, 4), (98, 2), (98, 3), (98, 4), (99, 1), (100, 2), (101, 4), (102, 2),
                 (103, 1), (103, 2), (104, 3), (105, 1), (105, 2), (105, 4), (106, 1), (107, 2), (108, 1), (108, 2),
                 (108, 3), (108, 4), (109, 4), (110, 2), (111, 4), (112, 1), (112, 2), (112, 3), (113, 4), (114, 1),
                 (114, 3), (115, 1), (116, 3), (117, 1), (117, 2), (118, 4), (119, 1), (119, 2), (119, 3), (119, 4),
                 (120, 1), (120, 2), (120, 3), (121, 2), (121, 4), (122, 3), (123, 1), (123, 4), (124, 1), (124, 2),
                 (124, 4), (125, 2), (126, 1), (126, 3), (127, 2), (127, 3), (127, 4), (128, 2), (129, 4), (130, 3),
                 (131, 1), (131, 2), (132, 3), (133, 3), (133, 4), (134, 4), (135, 4), (136, 3), (137, 2), (137, 3),
                 (137, 4), (138, 4), (139, 4), (140, 1), (140, 3), (141, 4), (142, 4), (143, 4), (144, 1), (144, 4),
                 (145, 2), (146, 1), (146, 4), (147, 4), (148, 1), (148, 3), (148, 4), (149, 1), (150, 1), (150, 2),
                 (150, 4), (151, 4), (152, 2), (152, 3), (153, 1), (154, 2), (155, 3), (156, 1), (156, 3), (157, 1),
                 (158, 1), (159, 1), (160, 4), (161, 1), (161, 2), (161, 3), (161, 4), (162, 1), (162, 3), (162, 4),
                 (163, 3), (164, 2), (164, 3), (165, 1), (165, 3), (165, 4), (166, 3), (167, 3), (168, 2), (168, 3),
                 (168, 4), (169, 4), (170, 4), (171, 1), (171, 2), (171, 4), (172, 1), (172, 2), (172, 4), (173, 4),
                 (174, 1), (174, 3), (175, 1), (175, 3), (175, 4), (176, 4), (177, 4), (178, 2), (178, 3), (179, 1),
                 (179, 2), (179, 3), (179, 4), (180, 2), (180, 3), (180, 4), (181, 4), (182, 4), (183, 3), (183, 4),
                 (184, 3), (184, 4), (185, 2), (185, 4), (186, 1), (186, 2), (186, 4), (187, 2), (187, 4), (188, 2),
                 (188, 4), (189, 1), (189, 2), (189, 3), (189, 4))
$ Visualisation for usage
$   1   1
$   1   3
$   2   2
$   2   3
$   2   4
$   3   1
$   3   2
$   3   4
$   4   1
$   5   2
$   5   3
$   5   4
$   6   3
$   7   2
$   7   4
$   8   1
$   9   1
$  10   2
$  10   3
$  11   1
$  11   3
$  12   1
$  13   4
$  14   1
$  14   2
$  14   4
$  15   2
$  15   3
$  16   1
$  16   2
$  17   2
$  18   1
$  19   1
$  19   4
$  20   3
$  21   2
$  21   3
$  22   2
$  22   4
$  23   2
$  23   3
$  23   4
$  24   4
$  25   1
$  25   2
$  25   3
$  26   3
$  27   4
$  28   4
$  29   2
$  30   4
$  31   2
$  31   3
$  31   4
$  32   1
$  33   4
$  34   2
$  35   2
$  36   1
$  36   2
$  36   3
$  37   1
$  37   3
$  38   2
$  38   3
$  39   2
$  39   3
$  40   1
$  40   2
$  40   4
$  41   1
$  41   3
$  42   4
$  43   4
$  44   1
$  44   4
$  45   1
$  45   4
$  46   4
$  47   1
$  47   2
$  47   4
$  48   4
$  49   1
$  49   2
$  50   1
$  51   4
$  52   1
$  52   2
$  52   3
$  52   4
$  53   3
$  54   1
$  54   4
$  55   1
$  55   2
$  55   4
$  56   2
$  56   3
$  56   4
$  57   1
$  58   2
$  58   4
$  59   1
$  59   3
$  60   4
$  61   3
$  61   4
$  62   1
$  62   4
$  63   2
$  63   3
$  64   4
$  65   1
$  65   2
$  65   3
$  65   4
$  66   3
$  66   4
$  67   3
$  68   1
$  69   2
$  69   4
$  70   1
$  71   1
$  72   3
$  73   1
$  73   3
$  74   4
$  75   1
$  75   3
$  75   4
$  76   1
$  76   2
$  76   4
$  77   2
$  77   4
$  78   1
$  78   4
$  79   1
$  80   1
$  81   3
$  82   1
$  82   2
$  82   4
$  83   3
$  84   1
$  84   2
$  84   3
$  85   1
$  85   2
$  86   1
$  86   2
$  87   1
$  87   3
$  88   2
$  88   4
$  89   1
$  89   2
$  89   3
$  90   4
$  91   2
$  91   3
$  91   4
$  92   4
$  93   4
$  94   4
$  95   4
$  96   2
$  96   3
$  96   4
$  97   4
$  98   2
$  98   3
$  98   4
$  99   1
$ 100   2
$ 101   4
$ 102   2
$ 103   1
$ 103   2
$ 104   3
$ 105   1
$ 105   2
$ 105   4
$ 106   1
$ 107   2
$ 108   1
$ 108   2
$ 108   3
$ 108   4
$ 109   4
$ 110   2
$ 111   4
$ 112   1
$ 112   2
$ 112   3
$ 113   4
$ 114   1
$ 114   3
$ 115   1
$ 116   3
$ 117   1
$ 117   2
$ 118   4
$ 119   1
$ 119   2
$ 119   3
$ 119   4
$ 120   1
$ 120   2
$ 120   3
$ 121   2
$ 121   4
$ 122   3
$ 123   1
$ 123   4
$ 124   1
$ 124   2
$ 124   4
$ 125   2
$ 126   1
$ 126   3
$ 127   2
$ 127   3
$ 127   4
$ 128   2
$ 129   4
$ 130   3
$ 131   1
$ 131   2
$ 132   3
$ 133   3
$ 133   4
$ 134   4
$ 135   4
$ 136   3
$ 137   2
$ 137   3
$ 137   4
$ 138   4
$ 139   4
$ 140   1
$ 140   3
$ 141   4
$ 142   4
$ 143   4
$ 144   1
$ 144   4
$ 145   2
$ 146   1
$ 146   4
$ 147   4
$ 148   1
$ 148   3
$ 148   4
$ 149   1
$ 150   1
$ 150   2
$ 150   4
$ 151   4
$ 152   2
$ 152   3
$ 153   1
$ 154   2
$ 155   3
$ 156   1
$ 156   3
$ 157   1
$ 158   1
$ 159   1
$ 160   4
$ 161   1
$ 161   2
$ 161   3
$ 161   4
$ 162   1
$ 162   3
$ 162   4
$ 163   3
$ 164   2
$ 164   3
$ 165   1
$ 165   3
$ 165   4
$ 166   3
$ 167   3
$ 168   2
$ 168   3
$ 168   4
$ 169   4
$ 170   4
$ 171   1
$ 171   2
$ 171   4
$ 172   1
$ 172   2
$ 172   4
$ 173   4
$ 174   1
$ 174   3
$ 175   1
$ 175   3
$ 175   4
$ 176   4
$ 177   4
$ 178   2
$ 178   3
$ 179   1
$ 179   2
$ 179   3
$ 179   4
$ 180   2
$ 180   3
$ 180   4
$ 181   4
$ 182   4
$ 183   3
$ 183   4
$ 184   3
$ 184   4
$ 185   2
$ 185   4
$ 186   1
$ 186   2
$ 186   4
$ 187   2
$ 187   4
$ 188   2
$ 188   4
$ 189   1
$ 189   2
$ 189   3
$ 189   4

